N = 390;
M = 964;
Edge_Start = [1, 2, 2, 3, 3, 4, 5, 5, 6, 6, 7, 7, 7, 8, 8, 9, 9, 10, 10, 11, 11, 11, 12, 12, 13, 13, 13, 14, 14, 15, 15, 15, 16, 16, 17, 17, 17, 18, 18, 19, 19, 20, 21, 21, 22, 22, 23, 23, 24, 24, 25, 25, 26, 26, 27, 27, 28, 29, 29, 29, 30, 30, 30, 31, 32, 33, 33, 33, 34, 34, 34, 35, 35, 35, 36, 36, 37, 37, 37, 38, 38, 38, 39, 39, 39, 40, 40, 40, 41, 41, 41, 42, 42, 42, 43, 43, 43, 44, 44, 44, 45, 45, 45, 46, 46, 47, 47, 47, 48, 48, 48, 49, 49, 49, 50, 50, 51, 51, 52, 52, 53, 53, 54, 54, 54, 55, 55, 56, 56, 57, 57, 57, 58, 58, 58, 59, 59, 60, 60, 61, 61, 62, 62, 62, 63, 63, 64, 64, 65, 65, 65, 66, 66, 66, 67, 67, 67, 68, 68, 68, 69, 69, 69, 70, 70, 70, 71, 71, 71, 72, 72, 72, 73, 73, 73, 74, 74, 75, 75, 75, 76, 76, 76, 77, 77, 77, 78, 78, 79, 80, 80, 80, 81, 81, 82, 82, 82, 83, 83, 84, 85, 86, 86, 86, 87, 87, 88, 88, 89, 89, 89, 90, 90, 90, 91, 91, 91, 92, 92, 92, 93, 93, 93, 94, 94, 94, 95, 95, 95, 96, 96, 96, 97, 97, 97, 98, 98, 99, 99, 100, 100, 100, 101, 101, 101, 102, 102, 103, 103, 103, 104, 104, 104, 105, 105, 105, 106, 106, 106, 107, 107, 107, 108, 108, 108, 109, 109, 109, 110, 110, 110, 111, 111, 112, 112, 113, 113, 114, 114, 114, 115, 115, 116, 116, 117, 117, 117, 118, 118, 118, 119, 119, 119, 120, 120, 120, 121, 121, 121, 122, 122, 122, 123, 123, 124, 124, 125, 125, 125, 126, 126, 127, 127, 127, 128, 128, 128, 129, 129, 129, 130, 131, 131, 132, 132, 132, 133, 133, 133, 134, 134, 134, 135, 135, 135, 136, 136, 137, 137, 137, 138, 138, 138, 139, 139, 140, 140, 141, 142, 142, 143, 143, 143, 144, 144, 144, 145, 145, 145, 146, 146, 146, 147, 147, 148, 148, 148, 149, 149, 149, 150, 150, 150, 151, 151, 151, 152, 152, 152, 153, 153, 153, 154, 154, 155, 155, 155, 156, 156, 157, 157, 158, 158, 159, 159, 159, 160, 160, 160, 161, 161, 161, 162, 162, 163, 163, 164, 164, 165, 165, 165, 166, 166, 166, 167, 167, 168, 168, 169, 169, 170, 170, 170, 171, 171, 171, 172, 172, 172, 173, 173, 174, 174, 175, 175, 176, 176, 177, 177, 177, 178, 178, 179, 179, 180, 180, 181, 181, 182, 182, 183, 183, 184, 184, 185, 185, 185, 186, 186, 187, 187, 188, 188, 189, 189, 189, 190, 190, 190, 191, 191, 191, 192, 192, 193, 193, 193, 194, 194, 194, 195, 195, 196, 196, 197, 197, 198, 198, 199, 199, 199, 200, 200, 200, 201, 201, 201, 202, 202, 203, 203, 204, 204, 205, 205, 206, 206, 207, 207, 207, 208, 208, 209, 209, 209, 210, 210, 210, 211, 211, 212, 212, 213, 213, 213, 214, 214, 214, 215, 215, 216, 216, 217, 217, 217, 218, 218, 218, 219, 219, 219, 220, 220, 221, 221, 221, 222, 222, 222, 223, 223, 224, 224, 225, 225, 225, 226, 226, 226, 227, 227, 227, 228, 228, 228, 229, 229, 229, 230, 230, 230, 231, 231, 231, 232, 232, 233, 233, 234, 234, 234, 235, 235, 235, 236, 236, 236, 237, 237, 237, 238, 238, 238, 239, 239, 239, 240, 240, 241, 241, 242, 242, 243, 244, 244, 244, 245, 245, 245, 246, 246, 246, 247, 247, 247, 248, 248, 248, 249, 249, 249, 250, 250, 251, 252, 252, 253, 253, 254, 254, 254, 255, 256, 256, 257, 257, 258, 258, 258, 259, 259, 259, 260, 260, 260, 261, 261, 261, 262, 262, 263, 263, 264, 264, 264, 265, 265, 265, 266, 266, 266, 267, 267, 268, 268, 268, 269, 269, 269, 270, 270, 270, 271, 271, 271, 272, 272, 272, 273, 273, 273, 274, 274, 274, 275, 275, 276, 276, 276, 277, 277, 277, 278, 278, 278, 279, 279, 280, 280, 281, 281, 282, 282, 282, 283, 283, 284, 284, 285, 286, 286, 287, 287, 287, 288, 288, 288, 289, 289, 289, 290, 290, 290, 291, 291, 291, 292, 292, 293, 293, 293, 294, 294, 294, 295, 295, 296, 296, 296, 297, 297, 297, 298, 299, 299, 300, 301, 301, 302, 302, 302, 303, 303, 304, 304, 305, 305, 306, 306, 306, 307, 307, 308, 309, 309, 310, 310, 310, 311, 311, 311, 312, 312, 313, 313, 313, 314, 314, 314, 315, 315, 315, 316, 316, 316, 317, 317, 317, 318, 318, 318, 319, 319, 319, 320, 320, 321, 321, 321, 322, 322, 322, 323, 323, 323, 324, 324, 324, 325, 325, 325, 326, 326, 327, 327, 327, 328, 328, 329, 329, 330, 330, 331, 331, 332, 332, 333, 333, 333, 334, 334, 334, 335, 335, 336, 336, 337, 337, 337, 338, 338, 338, 339, 339, 339, 340, 340, 340, 341, 341, 341, 342, 342, 342, 343, 343, 343, 344, 344, 344, 345, 345, 345, 346, 347, 347, 348, 348, 348, 349, 349, 349, 350, 350, 350, 351, 351, 351, 352, 352, 352, 353, 353, 353, 354, 354, 354, 355, 355, 355, 356, 356, 357, 357, 357, 358, 358, 358, 359, 359, 359, 360, 360, 360, 361, 361, 362, 362, 363, 363, 364, 364, 365, 365, 366, 366, 366, 367, 367, 368, 368, 368, 369, 370, 370, 371, 371, 372, 372, 373, 374, 374, 375, 375, 376, 376, 376, 377, 377, 378, 378, 378, 379, 379, 380, 380, 380, 381, 382, 382, 383, 384, 385, 385, 386, 386, 386, 387, 388, 388, 389, 389, 390, 390];
Edge_End = [2, 1, 3, 2, 30, 5, 4, 6, 5, 7, 6, 8, 34, 7, 9, 8, 10, 9, 11, 10, 12, 38, 11, 13, 12, 14, 40, 13, 15, 14, 16, 42, 15, 17, 16, 18, 44, 17, 19, 18, 20, 19, 22, 48, 21, 23, 22, 24, 23, 25, 24, 26, 25, 27, 26, 54, 29, 28, 30, 57, 3, 29, 31, 30, 33, 32, 34, 61, 7, 33, 35, 34, 36, 63, 35, 37, 36, 38, 65, 11, 37, 39, 38, 40, 67, 13, 39, 41, 40, 42, 69, 15, 41, 43, 42, 44, 71, 17, 43, 45, 44, 46, 73, 45, 47, 46, 48, 75, 21, 47, 49, 48, 50, 77, 49, 51, 50, 52, 51, 53, 52, 54, 27, 53, 55, 54, 83, 57, 84, 29, 56, 58, 57, 59, 86, 58, 60, 59, 88, 33, 62, 61, 63, 90, 35, 62, 65, 92, 37, 64, 66, 65, 67, 94, 39, 66, 68, 67, 69, 96, 41, 68, 70, 69, 71, 98, 43, 70, 72, 71, 73, 100, 45, 72, 74, 73, 75, 47, 74, 76, 75, 77, 104, 49, 76, 78, 77, 106, 80, 79, 81, 108, 80, 82, 81, 83, 110, 55, 82, 56, 86, 58, 85, 87, 86, 115, 60, 89, 88, 90, 117, 62, 89, 91, 90, 92, 119, 64, 91, 93, 92, 94, 121, 66, 93, 95, 94, 96, 123, 68, 95, 97, 96, 98, 125, 70, 97, 100, 127, 72, 99, 101, 100, 102, 129, 101, 103, 102, 104, 131, 76, 103, 105, 104, 106, 133, 78, 105, 107, 106, 108, 135, 80, 107, 109, 108, 110, 137, 82, 109, 111, 110, 139, 113, 140, 112, 114, 113, 115, 142, 87, 114, 117, 144, 89, 116, 118, 117, 119, 146, 91, 118, 120, 119, 121, 148, 93, 120, 122, 121, 123, 150, 95, 122, 125, 152, 97, 124, 126, 125, 127, 99, 126, 128, 127, 129, 156, 101, 128, 130, 129, 103, 132, 131, 133, 160, 105, 132, 134, 133, 135, 162, 107, 134, 136, 135, 137, 109, 136, 138, 137, 139, 166, 111, 138, 112, 141, 140, 114, 143, 142, 144, 171, 116, 143, 145, 144, 146, 173, 118, 145, 147, 146, 148, 120, 147, 149, 148, 150, 177, 122, 149, 151, 150, 152, 179, 124, 151, 153, 152, 154, 181, 153, 155, 154, 156, 183, 128, 155, 158, 185, 157, 159, 158, 160, 187, 132, 159, 161, 160, 162, 189, 134, 161, 164, 191, 163, 165, 164, 166, 193, 138, 165, 167, 166, 195, 169, 196, 168, 170, 169, 171, 198, 143, 170, 172, 171, 173, 200, 145, 172, 175, 202, 174, 176, 175, 177, 149, 176, 178, 177, 206, 151, 180, 179, 181, 153, 180, 183, 210, 155, 182, 185, 212, 157, 184, 186, 185, 214, 159, 188, 187, 189, 161, 188, 190, 189, 191, 218, 163, 190, 192, 191, 193, 165, 192, 194, 193, 195, 222, 167, 194, 168, 197, 196, 225, 170, 199, 198, 200, 227, 172, 199, 201, 200, 202, 229, 174, 201, 204, 231, 203, 205, 204, 233, 178, 207, 206, 208, 235, 207, 209, 208, 210, 237, 182, 209, 211, 210, 239, 184, 213, 212, 214, 241, 186, 213, 215, 214, 216, 215, 217, 216, 218, 245, 190, 217, 219, 218, 220, 247, 219, 221, 220, 222, 249, 194, 221, 223, 222, 251, 225, 252, 197, 224, 226, 225, 227, 254, 199, 226, 228, 227, 229, 256, 201, 228, 230, 229, 231, 258, 203, 230, 232, 231, 260, 205, 234, 233, 235, 262, 207, 234, 236, 235, 237, 264, 209, 236, 238, 237, 239, 266, 211, 238, 240, 239, 268, 213, 242, 241, 270, 244, 243, 245, 272, 217, 244, 246, 245, 247, 274, 219, 246, 248, 247, 249, 276, 221, 248, 250, 249, 278, 223, 224, 253, 252, 254, 226, 253, 255, 254, 228, 257, 256, 258, 230, 257, 259, 258, 260, 287, 232, 259, 261, 260, 262, 289, 234, 261, 264, 291, 236, 263, 265, 264, 266, 293, 238, 265, 267, 266, 268, 240, 267, 269, 268, 270, 297, 242, 269, 271, 270, 272, 299, 244, 271, 273, 272, 274, 301, 246, 273, 275, 274, 276, 248, 275, 277, 276, 278, 305, 250, 277, 279, 278, 307, 281, 308, 280, 282, 281, 283, 310, 282, 284, 283, 285, 284, 287, 314, 259, 286, 288, 287, 289, 316, 261, 288, 290, 289, 291, 318, 263, 290, 292, 291, 293, 265, 292, 294, 293, 295, 322, 294, 296, 295, 297, 324, 269, 296, 298, 297, 271, 300, 299, 273, 302, 301, 303, 330, 302, 304, 303, 332, 277, 306, 305, 307, 334, 279, 306, 280, 310, 337, 282, 309, 311, 310, 312, 339, 311, 313, 312, 314, 341, 286, 313, 315, 314, 316, 343, 288, 315, 317, 316, 318, 345, 290, 317, 319, 318, 320, 347, 319, 321, 320, 322, 349, 294, 321, 323, 322, 324, 351, 296, 323, 325, 324, 326, 353, 325, 327, 326, 328, 355, 327, 329, 328, 357, 302, 331, 330, 359, 304, 333, 332, 334, 361, 306, 333, 335, 334, 363, 337, 364, 309, 336, 338, 337, 339, 366, 311, 338, 340, 339, 341, 368, 313, 340, 342, 341, 343, 370, 315, 342, 344, 343, 345, 372, 317, 344, 346, 345, 319, 348, 347, 349, 376, 321, 348, 350, 349, 351, 378, 323, 350, 352, 351, 353, 380, 325, 352, 354, 353, 355, 382, 327, 354, 356, 355, 357, 329, 356, 358, 357, 359, 386, 331, 358, 360, 359, 361, 388, 333, 360, 363, 390, 335, 362, 336, 365, 364, 366, 338, 365, 367, 366, 368, 340, 367, 369, 368, 342, 371, 370, 372, 344, 371, 374, 373, 375, 374, 376, 348, 375, 377, 376, 378, 350, 377, 379, 378, 380, 352, 379, 381, 380, 354, 383, 382, 385, 384, 386, 358, 385, 387, 386, 360, 389, 388, 390, 362, 389];
L = [1, 1, 1, 1, 1, 1, 1, 1, 1, 1, 1, 1, 1, 1, 1, 1, 1, 1, 1, 1, 1, 1, 1, 1, 1, 1, 1, 1, 1, 1, 1, 1, 1, 1, 1, 1, 1, 1, 1, 1, 1, 1, 1, 1, 1, 1, 1, 1, 1, 1, 1, 1, 1, 1, 1, 1, 1, 1, 1, 1, 1, 1, 1, 1, 1, 1, 1, 1, 1, 1, 1, 1, 1, 1, 1, 1, 1, 1, 1, 1, 1, 1, 1, 1, 1, 1, 1, 1, 1, 1, 1, 1, 1, 1, 1, 1, 1, 1, 1, 1, 1, 1, 1, 1, 1, 1, 1, 1, 1, 1, 1, 1, 1, 1, 1, 1, 1, 1, 1, 1, 1, 1, 1, 1, 1, 1, 1, 1, 1, 1, 1, 1, 1, 1, 1, 1, 1, 1, 1, 1, 1, 1, 1, 1, 1, 1, 1, 1, 1, 1, 1, 1, 1, 1, 1, 1, 1, 1, 1, 1, 1, 1, 1, 1, 1, 1, 1, 1, 1, 1, 1, 1, 1, 1, 1, 1, 1, 1, 1, 1, 1, 1, 1, 1, 1, 1, 1, 1, 1, 1, 1, 1, 1, 1, 1, 1, 1, 1, 1, 1, 1, 1, 1, 1, 1, 1, 1, 1, 1, 1, 1, 1, 1, 1, 1, 1, 1, 1, 1, 1, 1, 1, 1, 1, 1, 1, 1, 1, 1, 1, 1, 1, 1, 1, 1, 1, 1, 1, 1, 1, 1, 1, 1, 1, 1, 1, 1, 1, 1, 1, 1, 1, 1, 1, 1, 1, 1, 1, 1, 1, 1, 1, 1, 1, 1, 1, 1, 1, 1, 1, 1, 1, 1, 1, 1, 1, 1, 1, 1, 1, 1, 1, 1, 1, 1, 1, 1, 1, 1, 1, 1, 1, 1, 1, 1, 1, 1, 1, 1, 1, 1, 1, 1, 1, 1, 1, 1, 1, 1, 1, 1, 1, 1, 1, 1, 1, 1, 1, 1, 1, 1, 1, 1, 1, 1, 1, 1, 1, 1, 1, 1, 1, 1, 1, 1, 1, 1, 1, 1, 1, 1, 1, 1, 1, 1, 1, 1, 1, 1, 1, 1, 1, 1, 1, 1, 1, 1, 1, 1, 1, 1, 1, 1, 1, 1, 1, 1, 1, 1, 1, 1, 1, 1, 1, 1, 1, 1, 1, 1, 1, 1, 1, 1, 1, 1, 1, 1, 1, 1, 1, 1, 1, 1, 1, 1, 1, 1, 1, 1, 1, 1, 1, 1, 1, 1, 1, 1, 1, 1, 1, 1, 1, 1, 1, 1, 1, 1, 1, 1, 1, 1, 1, 1, 1, 1, 1, 1, 1, 1, 1, 1, 1, 1, 1, 1, 1, 1, 1, 1, 1, 1, 1, 1, 1, 1, 1, 1, 1, 1, 1, 1, 1, 1, 1, 1, 1, 1, 1, 1, 1, 1, 1, 1, 1, 1, 1, 1, 1, 1, 1, 1, 1, 1, 1, 1, 1, 1, 1, 1, 1, 1, 1, 1, 1, 1, 1, 1, 1, 1, 1, 1, 1, 1, 1, 1, 1, 1, 1, 1, 1, 1, 1, 1, 1, 1, 1, 1, 1, 1, 1, 1, 1, 1, 1, 1, 1, 1, 1, 1, 1, 1, 1, 1, 1, 1, 1, 1, 1, 1, 1, 1, 1, 1, 1, 1, 1, 1, 1, 1, 1, 1, 1, 1, 1, 1, 1, 1, 1, 1, 1, 1, 1, 1, 1, 1, 1, 1, 1, 1, 1, 1, 1, 1, 1, 1, 1, 1, 1, 1, 1, 1, 1, 1, 1, 1, 1, 1, 1, 1, 1, 1, 1, 1, 1, 1, 1, 1, 1, 1, 1, 1, 1, 1, 1, 1, 1, 1, 1, 1, 1, 1, 1, 1, 1, 1, 1, 1, 1, 1, 1, 1, 1, 1, 1, 1, 1, 1, 1, 1, 1, 1, 1, 1, 1, 1, 1, 1, 1, 1, 1, 1, 1, 1, 1, 1, 1, 1, 1, 1, 1, 1, 1, 1, 1, 1, 1, 1, 1, 1, 1, 1, 1, 1, 1, 1, 1, 1, 1, 1, 1, 1, 1, 1, 1, 1, 1, 1, 1, 1, 1, 1, 1, 1, 1, 1, 1, 1, 1, 1, 1, 1, 1, 1, 1, 1, 1, 1, 1, 1, 1, 1, 1, 1, 1, 1, 1, 1, 1, 1, 1, 1, 1, 1, 1, 1, 1, 1, 1, 1, 1, 1, 1, 1, 1, 1, 1, 1, 1, 1, 1, 1, 1, 1, 1, 1, 1, 1, 1, 1, 1, 1, 1, 1, 1, 1, 1, 1, 1, 1, 1, 1, 1, 1, 1, 1, 1, 1, 1, 1, 1, 1, 1, 1, 1, 1, 1, 1, 1, 1, 1, 1, 1, 1, 1, 1, 1, 1, 1, 1, 1, 1, 1, 1, 1, 1, 1, 1, 1, 1, 1, 1, 1, 1, 1, 1, 1, 1, 1, 1, 1, 1, 1, 1, 1, 1, 1, 1, 1, 1, 1, 1, 1, 1, 1, 1, 1, 1, 1, 1, 1, 1, 1, 1, 1, 1, 1, 1, 1, 1, 1, 1, 1, 1, 1, 1, 1, 1, 1, 1, 1, 1, 1, 1, 1, 1, 1, 1, 1, 1, 1, 1, 1, 1, 1, 1, 1, 1, 1, 1, 1, 1, 1, 1, 1, 1, 1, 1, 1, 1, 1, 1, 1, 1, 1, 1, 1, 1, 1, 1, 1, 1, 1, 1, 1, 1, 1, 1, 1, 1, 1, 1, 1, 1, 1, 1, 1, 1, 1, 1, 1, 1, 1, 1, 1, 1, 1, 1, 1, 1, 1, 1, 1, 1, 1, 1, 1, 1, 1, 1, 1, 1, 1, 1, 1, 1, 1, 1, 1, 1, 1, 1, 1, 1, 1, 1, 1, 1, 1, 1, 1, 1, 1, 1, 1, 1, 1, 1, 1, 1, 1, 1, 1, 1, 1, 1, 1, 1, 1, 1, 1, 1, 1, 1, 1, 1, 1, 1, 1, 1, 1, 1, 1, 1, 1];
T = [1, 1, 1, 1, 1, 1, 1, 1, 1, 1, 1, 1, 1, 1, 1, 1, 1, 1, 1, 1, 1, 1, 1, 1, 1, 1, 1, 1, 1, 1, 1, 1, 1, 1, 1, 1, 1, 1, 1, 1, 1, 1, 1, 1, 1, 1, 1, 1, 1, 1, 1, 1, 1, 1, 1, 1, 1, 1, 1, 1, 1, 1, 1, 1, 1, 1, 1, 1, 1, 1, 1, 1, 1, 1, 1, 1, 1, 1, 1, 1, 1, 1, 1, 1, 1, 1, 1, 1, 1, 1, 1, 1, 1, 1, 1, 1, 1, 1, 1, 1, 1, 1, 1, 1, 1, 1, 1, 1, 1, 1, 1, 1, 1, 1, 1, 1, 1, 1, 1, 1, 1, 1, 1, 1, 1, 1, 1, 1, 1, 1, 1, 1, 1, 1, 1, 1, 1, 1, 1, 1, 1, 1, 1, 1, 1, 1, 1, 1, 1, 1, 1, 1, 1, 1, 1, 1, 1, 1, 1, 1, 1, 1, 1, 1, 1, 1, 1, 1, 1, 1, 1, 1, 1, 1, 1, 1, 1, 1, 1, 1, 1, 1, 1, 1, 1, 1, 1, 1, 1, 1, 1, 1, 1, 1, 1, 1, 1, 1, 1, 1, 1, 1, 1, 1, 1, 1, 1, 1, 1, 1, 1, 1, 1, 1, 1, 1, 1, 1, 1, 1, 1, 1, 1, 1, 1, 1, 1, 1, 1, 1, 1, 1, 1, 1, 1, 1, 1, 1, 1, 1, 1, 1, 1, 1, 1, 1, 1, 1, 1, 1, 1, 1, 1, 1, 1, 1, 1, 1, 1, 1, 1, 1, 1, 1, 1, 1, 1, 1, 1, 1, 1, 1, 1, 1, 1, 1, 1, 1, 1, 1, 1, 1, 1, 1, 1, 1, 1, 1, 1, 1, 1, 1, 1, 1, 1, 1, 1, 1, 1, 1, 1, 1, 1, 1, 1, 1, 1, 1, 1, 1, 1, 1, 1, 1, 1, 1, 1, 1, 1, 1, 1, 1, 1, 1, 1, 1, 1, 1, 1, 1, 1, 1, 1, 1, 1, 1, 1, 1, 1, 1, 1, 1, 1, 1, 1, 1, 1, 1, 1, 1, 1, 1, 1, 1, 1, 1, 1, 1, 1, 1, 1, 1, 1, 1, 1, 1, 1, 1, 1, 1, 1, 1, 1, 1, 1, 1, 1, 1, 1, 1, 1, 1, 1, 1, 1, 1, 1, 1, 1, 1, 1, 1, 1, 1, 1, 1, 1, 1, 1, 1, 1, 1, 1, 1, 1, 1, 1, 1, 1, 1, 1, 1, 1, 1, 1, 1, 1, 1, 1, 1, 1, 1, 1, 1, 1, 1, 1, 1, 1, 1, 1, 1, 1, 1, 1, 1, 1, 1, 1, 1, 1, 1, 1, 1, 1, 1, 1, 1, 1, 1, 1, 1, 1, 1, 1, 1, 1, 1, 1, 1, 1, 1, 1, 1, 1, 1, 1, 1, 1, 1, 1, 1, 1, 1, 1, 1, 1, 1, 1, 1, 1, 1, 1, 1, 1, 1, 1, 1, 1, 1, 1, 1, 1, 1, 1, 1, 1, 1, 1, 1, 1, 1, 1, 1, 1, 1, 1, 1, 1, 1, 1, 1, 1, 1, 1, 1, 1, 1, 1, 1, 1, 1, 1, 1, 1, 1, 1, 1, 1, 1, 1, 1, 1, 1, 1, 1, 1, 1, 1, 1, 1, 1, 1, 1, 1, 1, 1, 1, 1, 1, 1, 1, 1, 1, 1, 1, 1, 1, 1, 1, 1, 1, 1, 1, 1, 1, 1, 1, 1, 1, 1, 1, 1, 1, 1, 1, 1, 1, 1, 1, 1, 1, 1, 1, 1, 1, 1, 1, 1, 1, 1, 1, 1, 1, 1, 1, 1, 1, 1, 1, 1, 1, 1, 1, 1, 1, 1, 1, 1, 1, 1, 1, 1, 1, 1, 1, 1, 1, 1, 1, 1, 1, 1, 1, 1, 1, 1, 1, 1, 1, 1, 1, 1, 1, 1, 1, 1, 1, 1, 1, 1, 1, 1, 1, 1, 1, 1, 1, 1, 1, 1, 1, 1, 1, 1, 1, 1, 1, 1, 1, 1, 1, 1, 1, 1, 1, 1, 1, 1, 1, 1, 1, 1, 1, 1, 1, 1, 1, 1, 1, 1, 1, 1, 1, 1, 1, 1, 1, 1, 1, 1, 1, 1, 1, 1, 1, 1, 1, 1, 1, 1, 1, 1, 1, 1, 1, 1, 1, 1, 1, 1, 1, 1, 1, 1, 1, 1, 1, 1, 1, 1, 1, 1, 1, 1, 1, 1, 1, 1, 1, 1, 1, 1, 1, 1, 1, 1, 1, 1, 1, 1, 1, 1, 1, 1, 1, 1, 1, 1, 1, 1, 1, 1, 1, 1, 1, 1, 1, 1, 1, 1, 1, 1, 1, 1, 1, 1, 1, 1, 1, 1, 1, 1, 1, 1, 1, 1, 1, 1, 1, 1, 1, 1, 1, 1, 1, 1, 1, 1, 1, 1, 1, 1, 1, 1, 1, 1, 1, 1, 1, 1, 1, 1, 1, 1, 1, 1, 1, 1, 1, 1, 1, 1, 1, 1, 1, 1, 1, 1, 1, 1, 1, 1, 1, 1, 1, 1, 1, 1, 1, 1, 1, 1, 1, 1, 1, 1, 1, 1, 1, 1, 1, 1, 1, 1, 1, 1, 1, 1, 1, 1, 1, 1, 1, 1, 1, 1, 1, 1, 1, 1, 1, 1, 1, 1, 1, 1, 1, 1, 1, 1, 1, 1, 1, 1, 1, 1, 1, 1, 1, 1, 1, 1, 1, 1, 1, 1, 1, 1, 1, 1, 1, 1, 1, 1, 1, 1, 1, 1, 1, 1, 1, 1, 1, 1, 1, 1, 1, 1, 1, 1, 1, 1, 1, 1, 1, 1, 1, 1, 1, 1, 1, 1, 1, 1, 1, 1, 1, 1, 1, 1, 1, 1, 1, 1, 1, 1, 1, 1, 1, 1, 1, 1, 1, 1, 1, 1, 1, 1, 1, 1, 1, 1, 1, 1, 1, 1, 1, 1, 1, 1, 1, 1, 1];
Lower_Bound = [0, 1, 2, 19, 18, 17, 16, 18, 18, 19, 18, 19, 20, 21, 22, 23, 24, 25, 26, 28, 29, 31, 30, 33, 32, 33, 34, 5, 4, 3, 4, 16, 14, 15, 14, 18, 16, 18, 18, 19, 20, 22, 22, 23, 24, 25, 26, 27, 28, 29, 32, 32, 32, 34, 34, 6, 5, 7, 9, 8, 13, 13, 13, 14, 15, 16, 17, 19, 22, 20, 22, 22, 23, 24, 27, 26, 33, 28, 33, 32, 34, 34, 35, 7, 8, 7, 10, 9, 11, 11, 12, 13, 14, 15, 18, 17, 18, 19, 22, 23, 24, 25, 26, 28, 28, 30, 30, 31, 33, 33, 34, 12, 13, 12, 10, 14, 11, 12, 15, 14, 15, 16, 18, 21, 19, 20, 21, 22, 23, 25, 27, 28, 30, 30, 31, 32, 33, 34, 35, 14, 14, 11, 12, 13, 14, 13, 14, 15, 16, 18, 19, 19, 22, 21, 22, 23, 32, 31, 30, 29, 30, 32, 35, 35, 37, 36, 36, 16, 15, 14, 13, 14, 15, 18, 19, 19, 17, 18, 19, 20, 21, 25, 23, 35, 35, 34, 31, 35, 31, 32, 34, 34, 36, 36, 38, 17, 18, 16, 16, 15, 16, 18, 20, 21, 22, 20, 20, 21, 22, 23, 28, 33, 32, 34, 34, 35, 34, 33, 35, 36, 37, 37, 39, 24, 20, 19, 17, 19, 19, 22, 19, 20, 23, 22, 21, 22, 23, 24, 25, 26, 31, 30, 33, 32, 33, 34, 37, 36, 39, 38, 39, 21, 20, 19, 21, 20, 20, 19, 20, 21, 23, 23, 24, 23, 24, 25, 26, 28, 28, 30, 30, 31, 32, 33, 34, 35, 36, 39, 38, 30, 30, 29, 30, 31, 31, 22, 21, 22, 23, 24, 26, 26, 26, 26, 27, 28, 30, 32, 31, 33, 33, 35, 35, 36, 37, 38, 39, 32, 28, 27, 26, 26, 24, 23, 24, 23, 25, 28, 26, 27, 30, 27, 29, 29, 30, 31, 32, 33, 35, 35, 36, 37, 38, 39, 44, 30, 29, 29, 27, 26, 26, 26, 25, 30, 25, 27, 27, 28, 29, 30, 29, 30, 33, 32, 34, 34, 36, 36, 38, 38, 39, 44, 42, 32, 33, 29, 30, 27, 31, 27, 28, 27, 33, 31, 30, 29, 30, 31, 32, 31, 32, 33, 34, 39, 38, 37, 39, 39, 40, 41];
Upper_Bound = [1, 6, 5, 22, 19, 18, 26, 19, 22, 22, 20, 25, 25, 34, 29, 25, 26, 33, 27, 44, 31, 33, 33, 40, 34, 36, 45, 7, 8, 12, 9, 22, 21, 19, 16, 23, 21, 26, 28, 26, 23, 26, 24, 27, 27, 27, 28, 35, 32, 30, 40, 33, 42, 38, 42, 7, 15, 20, 11, 9, 31, 19, 24, 15, 17, 36, 21, 20, 25, 41, 25, 26, 25, 26, 28, 29, 36, 32, 36, 39, 46, 42, 39, 8, 12, 16, 16, 11, 14, 14, 13, 16, 15, 16, 21, 22, 24, 20, 26, 26, 31, 38, 27, 29, 35, 31, 31, 34, 38, 37, 37, 16, 27, 14, 12, 16, 15, 16, 24, 21, 17, 26, 26, 23, 21, 23, 22, 28, 25, 28, 31, 30, 45, 31, 32, 36, 35, 36, 37, 15, 18, 23, 26, 16, 15, 15, 16, 16, 40, 38, 25, 21, 26, 26, 37, 24, 36, 39, 33, 32, 31, 33, 36, 45, 45, 43, 39, 17, 17, 18, 21, 26, 22, 26, 23, 20, 25, 21, 26, 25, 34, 30, 24, 44, 41, 42, 33, 36, 39, 34, 35, 37, 37, 38, 42, 21, 34, 17, 23, 16, 30, 20, 21, 22, 35, 24, 29, 23, 23, 26, 32, 34, 33, 44, 36, 37, 36, 39, 36, 37, 39, 42, 40, 25, 23, 24, 19, 24, 20, 27, 22, 30, 24, 25, 23, 24, 24, 30, 29, 42, 35, 33, 38, 39, 57, 36, 39, 40, 43, 40, 42, 22, 27, 33, 25, 24, 22, 23, 24, 22, 27, 30, 36, 25, 26, 26, 28, 30, 32, 36, 31, 33, 33, 36, 44, 36, 38, 42, 40, 33, 35, 30, 34, 32, 36, 34, 35, 37, 27, 25, 29, 36, 37, 27, 28, 30, 34, 34, 32, 35, 38, 40, 37, 40, 38, 47, 47, 33, 37, 36, 28, 36, 36, 31, 40, 25, 27, 34, 28, 28, 35, 36, 30, 31, 37, 36, 34, 46, 40, 42, 39, 39, 39, 41, 47, 31, 33, 30, 33, 28, 29, 30, 26, 31, 29, 28, 28, 29, 32, 34, 58, 32, 36, 41, 36, 36, 43, 37, 46, 40, 40, 45, 48, 34, 37, 30, 35, 47, 34, 31, 29, 41, 38, 33, 36, 36, 35, 34, 36, 35, 34, 37, 42, 55, 41, 38, 41, 41, 43, 43];
Start = 1;
End = 390;
Time = 43;
